c description: Tseitin formula on , with odd charge
c generator: CNFgen (0.9.0)
c copyright: (C) 2012-2020 Massimo Lauria <massimo.lauria@uniroma1.it>
c url: https://massimolauria.net/cnfgen
c
p cnf 30 440
1 2 3 4 5 6 0
1 2 3 4 -5 -6 0
1 2 3 -4 5 -6 0
1 2 3 -4 -5 6 0
1 2 -3 4 5 -6 0
1 2 -3 4 -5 6 0
1 2 -3 -4 5 6 0
1 2 -3 -4 -5 -6 0
1 -2 3 4 5 -6 0
1 -2 3 4 -5 6 0
1 -2 3 -4 5 6 0
1 -2 3 -4 -5 -6 0
1 -2 -3 4 5 6 0
1 -2 -3 4 -5 -6 0
1 -2 -3 -4 5 -6 0
1 -2 -3 -4 -5 6 0
-1 2 3 4 5 -6 0
-1 2 3 4 -5 6 0
-1 2 3 -4 5 6 0
-1 2 3 -4 -5 -6 0
-1 2 -3 4 5 6 0
-1 2 -3 4 -5 -6 0
-1 2 -3 -4 5 -6 0
-1 2 -3 -4 -5 6 0
-1 -2 3 4 5 6 0
-1 -2 3 4 -5 -6 0
-1 -2 3 -4 5 -6 0
-1 -2 3 -4 -5 6 0
-1 -2 -3 4 5 -6 0
-1 -2 -3 4 -5 6 0
-1 -2 -3 -4 5 6 0
-1 -2 -3 -4 -5 -6 0
1 7 8 9 -10 0
1 7 8 -9 10 0
1 7 -8 9 10 0
1 7 -8 -9 -10 0
1 -7 8 9 10 0
1 -7 8 -9 -10 0
1 -7 -8 9 -10 0
1 -7 -8 -9 10 0
-1 7 8 9 10 0
-1 7 8 -9 -10 0
-1 7 -8 9 -10 0
-1 7 -8 -9 10 0
-1 -7 8 9 -10 0
-1 -7 8 -9 10 0
-1 -7 -8 9 10 0
-1 -7 -8 -9 -10 0
2 7 11 12 13 14 -15 0
2 7 11 12 13 -14 15 0
2 7 11 12 -13 14 15 0
2 7 11 12 -13 -14 -15 0
2 7 11 -12 13 14 15 0
2 7 11 -12 13 -14 -15 0
2 7 11 -12 -13 14 -15 0
2 7 11 -12 -13 -14 15 0
2 7 -11 12 13 14 15 0
2 7 -11 12 13 -14 -15 0
2 7 -11 12 -13 14 -15 0
2 7 -11 12 -13 -14 15 0
2 7 -11 -12 13 14 -15 0
2 7 -11 -12 13 -14 15 0
2 7 -11 -12 -13 14 15 0
2 7 -11 -12 -13 -14 -15 0
2 -7 11 12 13 14 15 0
2 -7 11 12 13 -14 -15 0
2 -7 11 12 -13 14 -15 0
2 -7 11 12 -13 -14 15 0
2 -7 11 -12 13 14 -15 0
2 -7 11 -12 13 -14 15 0
2 -7 11 -12 -13 14 15 0
2 -7 11 -12 -13 -14 -15 0
2 -7 -11 12 13 14 -15 0
2 -7 -11 12 13 -14 15 0
2 -7 -11 12 -13 14 15 0
2 -7 -11 12 -13 -14 -15 0
2 -7 -11 -12 13 14 15 0
2 -7 -11 -12 13 -14 -15 0
2 -7 -11 -12 -13 14 -15 0
2 -7 -11 -12 -13 -14 15 0
-2 7 11 12 13 14 15 0
-2 7 11 12 13 -14 -15 0
-2 7 11 12 -13 14 -15 0
-2 7 11 12 -13 -14 15 0
-2 7 11 -12 13 14 -15 0
-2 7 11 -12 13 -14 15 0
-2 7 11 -12 -13 14 15 0
-2 7 11 -12 -13 -14 -15 0
-2 7 -11 12 13 14 -15 0
-2 7 -11 12 13 -14 15 0
-2 7 -11 12 -13 14 15 0
-2 7 -11 12 -13 -14 -15 0
-2 7 -11 -12 13 14 15 0
-2 7 -11 -12 13 -14 -15 0
-2 7 -11 -12 -13 14 -15 0
-2 7 -11 -12 -13 -14 15 0
-2 -7 11 12 13 14 -15 0
-2 -7 11 12 13 -14 15 0
-2 -7 11 12 -13 14 15 0
-2 -7 11 12 -13 -14 -15 0
-2 -7 11 -12 13 14 15 0
-2 -7 11 -12 13 -14 -15 0
-2 -7 11 -12 -13 14 -15 0
-2 -7 11 -12 -13 -14 15 0
-2 -7 -11 12 13 14 15 0
-2 -7 -11 12 13 -14 -15 0
-2 -7 -11 12 -13 14 -15 0
-2 -7 -11 12 -13 -14 15 0
-2 -7 -11 -12 13 14 -15 0
-2 -7 -11 -12 13 -14 15 0
-2 -7 -11 -12 -13 14 15 0
-2 -7 -11 -12 -13 -14 -15 0
3 11 16 17 -18 0
3 11 16 -17 18 0
3 11 -16 17 18 0
3 11 -16 -17 -18 0
3 -11 16 17 18 0
3 -11 16 -17 -18 0
3 -11 -16 17 -18 0
3 -11 -16 -17 18 0
-3 11 16 17 18 0
-3 11 16 -17 -18 0
-3 11 -16 17 -18 0
-3 11 -16 -17 18 0
-3 -11 16 17 -18 0
-3 -11 16 -17 18 0
-3 -11 -16 17 18 0
-3 -11 -16 -17 -18 0
4 19 20 -21 0
4 19 -20 21 0
4 -19 20 21 0
4 -19 -20 -21 0
-4 19 20 21 0
-4 19 -20 -21 0
-4 -19 20 -21 0
-4 -19 -20 21 0
8 16 19 22 23 24 -25 0
8 16 19 22 23 -24 25 0
8 16 19 22 -23 24 25 0
8 16 19 22 -23 -24 -25 0
8 16 19 -22 23 24 25 0
8 16 19 -22 23 -24 -25 0
8 16 19 -22 -23 24 -25 0
8 16 19 -22 -23 -24 25 0
8 16 -19 22 23 24 25 0
8 16 -19 22 23 -24 -25 0
8 16 -19 22 -23 24 -25 0
8 16 -19 22 -23 -24 25 0
8 16 -19 -22 23 24 -25 0
8 16 -19 -22 23 -24 25 0
8 16 -19 -22 -23 24 25 0
8 16 -19 -22 -23 -24 -25 0
8 -16 19 22 23 24 25 0
8 -16 19 22 23 -24 -25 0
8 -16 19 22 -23 24 -25 0
8 -16 19 22 -23 -24 25 0
8 -16 19 -22 23 24 -25 0
8 -16 19 -22 23 -24 25 0
8 -16 19 -22 -23 24 25 0
8 -16 19 -22 -23 -24 -25 0
8 -16 -19 22 23 24 -25 0
8 -16 -19 22 23 -24 25 0
8 -16 -19 22 -23 24 25 0
8 -16 -19 22 -23 -24 -25 0
8 -16 -19 -22 23 24 25 0
8 -16 -19 -22 23 -24 -25 0
8 -16 -19 -22 -23 24 -25 0
8 -16 -19 -22 -23 -24 25 0
-8 16 19 22 23 24 25 0
-8 16 19 22 23 -24 -25 0
-8 16 19 22 -23 24 -25 0
-8 16 19 22 -23 -24 25 0
-8 16 19 -22 23 24 -25 0
-8 16 19 -22 23 -24 25 0
-8 16 19 -22 -23 24 25 0
-8 16 19 -22 -23 -24 -25 0
-8 16 -19 22 23 24 -25 0
-8 16 -19 22 23 -24 25 0
-8 16 -19 22 -23 24 25 0
-8 16 -19 22 -23 -24 -25 0
-8 16 -19 -22 23 24 25 0
-8 16 -19 -22 23 -24 -25 0
-8 16 -19 -22 -23 24 -25 0
-8 16 -19 -22 -23 -24 25 0
-8 -16 19 22 23 24 -25 0
-8 -16 19 22 23 -24 25 0
-8 -16 19 22 -23 24 25 0
-8 -16 19 22 -23 -24 -25 0
-8 -16 19 -22 23 24 25 0
-8 -16 19 -22 23 -24 -25 0
-8 -16 19 -22 -23 24 -25 0
-8 -16 19 -22 -23 -24 25 0
-8 -16 -19 22 23 24 25 0
-8 -16 -19 22 23 -24 -25 0
-8 -16 -19 22 -23 24 -25 0
-8 -16 -19 22 -23 -24 25 0
-8 -16 -19 -22 23 24 -25 0
-8 -16 -19 -22 23 -24 25 0
-8 -16 -19 -22 -23 24 25 0
-8 -16 -19 -22 -23 -24 -25 0
12 20 22 26 27 -28 0
12 20 22 26 -27 28 0
12 20 22 -26 27 28 0
12 20 22 -26 -27 -28 0
12 20 -22 26 27 28 0
12 20 -22 26 -27 -28 0
12 20 -22 -26 27 -28 0
12 20 -22 -26 -27 28 0
12 -20 22 26 27 28 0
12 -20 22 26 -27 -28 0
12 -20 22 -26 27 -28 0
12 -20 22 -26 -27 28 0
12 -20 -22 26 27 -28 0
12 -20 -22 26 -27 28 0
12 -20 -22 -26 27 28 0
12 -20 -22 -26 -27 -28 0
-12 20 22 26 27 28 0
-12 20 22 26 -27 -28 0
-12 20 22 -26 27 -28 0
-12 20 22 -26 -27 28 0
-12 20 -22 26 27 -28 0
-12 20 -22 26 -27 28 0
-12 20 -22 -26 27 28 0
-12 20 -22 -26 -27 -28 0
-12 -20 22 26 27 -28 0
-12 -20 22 26 -27 28 0
-12 -20 22 -26 27 28 0
-12 -20 22 -26 -27 -28 0
-12 -20 -22 26 27 28 0
-12 -20 -22 26 -27 -28 0
-12 -20 -22 -26 27 -28 0
-12 -20 -22 -26 -27 28 0
5 9 13 17 23 26 29 -30 0
5 9 13 17 23 26 -29 30 0
5 9 13 17 23 -26 29 30 0
5 9 13 17 23 -26 -29 -30 0
5 9 13 17 -23 26 29 30 0
5 9 13 17 -23 26 -29 -30 0
5 9 13 17 -23 -26 29 -30 0
5 9 13 17 -23 -26 -29 30 0
5 9 13 -17 23 26 29 30 0
5 9 13 -17 23 26 -29 -30 0
5 9 13 -17 23 -26 29 -30 0
5 9 13 -17 23 -26 -29 30 0
5 9 13 -17 -23 26 29 -30 0
5 9 13 -17 -23 26 -29 30 0
5 9 13 -17 -23 -26 29 30 0
5 9 13 -17 -23 -26 -29 -30 0
5 9 -13 17 23 26 29 30 0
5 9 -13 17 23 26 -29 -30 0
5 9 -13 17 23 -26 29 -30 0
5 9 -13 17 23 -26 -29 30 0
5 9 -13 17 -23 26 29 -30 0
5 9 -13 17 -23 26 -29 30 0
5 9 -13 17 -23 -26 29 30 0
5 9 -13 17 -23 -26 -29 -30 0
5 9 -13 -17 23 26 29 -30 0
5 9 -13 -17 23 26 -29 30 0
5 9 -13 -17 23 -26 29 30 0
5 9 -13 -17 23 -26 -29 -30 0
5 9 -13 -17 -23 26 29 30 0
5 9 -13 -17 -23 26 -29 -30 0
5 9 -13 -17 -23 -26 29 -30 0
5 9 -13 -17 -23 -26 -29 30 0
5 -9 13 17 23 26 29 30 0
5 -9 13 17 23 26 -29 -30 0
5 -9 13 17 23 -26 29 -30 0
5 -9 13 17 23 -26 -29 30 0
5 -9 13 17 -23 26 29 -30 0
5 -9 13 17 -23 26 -29 30 0
5 -9 13 17 -23 -26 29 30 0
5 -9 13 17 -23 -26 -29 -30 0
5 -9 13 -17 23 26 29 -30 0
5 -9 13 -17 23 26 -29 30 0
5 -9 13 -17 23 -26 29 30 0
5 -9 13 -17 23 -26 -29 -30 0
5 -9 13 -17 -23 26 29 30 0
5 -9 13 -17 -23 26 -29 -30 0
5 -9 13 -17 -23 -26 29 -30 0
5 -9 13 -17 -23 -26 -29 30 0
5 -9 -13 17 23 26 29 -30 0
5 -9 -13 17 23 26 -29 30 0
5 -9 -13 17 23 -26 29 30 0
5 -9 -13 17 23 -26 -29 -30 0
5 -9 -13 17 -23 26 29 30 0
5 -9 -13 17 -23 26 -29 -30 0
5 -9 -13 17 -23 -26 29 -30 0
5 -9 -13 17 -23 -26 -29 30 0
5 -9 -13 -17 23 26 29 30 0
5 -9 -13 -17 23 26 -29 -30 0
5 -9 -13 -17 23 -26 29 -30 0
5 -9 -13 -17 23 -26 -29 30 0
5 -9 -13 -17 -23 26 29 -30 0
5 -9 -13 -17 -23 26 -29 30 0
5 -9 -13 -17 -23 -26 29 30 0
5 -9 -13 -17 -23 -26 -29 -30 0
-5 9 13 17 23 26 29 30 0
-5 9 13 17 23 26 -29 -30 0
-5 9 13 17 23 -26 29 -30 0
-5 9 13 17 23 -26 -29 30 0
-5 9 13 17 -23 26 29 -30 0
-5 9 13 17 -23 26 -29 30 0
-5 9 13 17 -23 -26 29 30 0
-5 9 13 17 -23 -26 -29 -30 0
-5 9 13 -17 23 26 29 -30 0
-5 9 13 -17 23 26 -29 30 0
-5 9 13 -17 23 -26 29 30 0
-5 9 13 -17 23 -26 -29 -30 0
-5 9 13 -17 -23 26 29 30 0
-5 9 13 -17 -23 26 -29 -30 0
-5 9 13 -17 -23 -26 29 -30 0
-5 9 13 -17 -23 -26 -29 30 0
-5 9 -13 17 23 26 29 -30 0
-5 9 -13 17 23 26 -29 30 0
-5 9 -13 17 23 -26 29 30 0
-5 9 -13 17 23 -26 -29 -30 0
-5 9 -13 17 -23 26 29 30 0
-5 9 -13 17 -23 26 -29 -30 0
-5 9 -13 17 -23 -26 29 -30 0
-5 9 -13 17 -23 -26 -29 30 0
-5 9 -13 -17 23 26 29 30 0
-5 9 -13 -17 23 26 -29 -30 0
-5 9 -13 -17 23 -26 29 -30 0
-5 9 -13 -17 23 -26 -29 30 0
-5 9 -13 -17 -23 26 29 -30 0
-5 9 -13 -17 -23 26 -29 30 0
-5 9 -13 -17 -23 -26 29 30 0
-5 9 -13 -17 -23 -26 -29 -30 0
-5 -9 13 17 23 26 29 -30 0
-5 -9 13 17 23 26 -29 30 0
-5 -9 13 17 23 -26 29 30 0
-5 -9 13 17 23 -26 -29 -30 0
-5 -9 13 17 -23 26 29 30 0
-5 -9 13 17 -23 26 -29 -30 0
-5 -9 13 17 -23 -26 29 -30 0
-5 -9 13 17 -23 -26 -29 30 0
-5 -9 13 -17 23 26 29 30 0
-5 -9 13 -17 23 26 -29 -30 0
-5 -9 13 -17 23 -26 29 -30 0
-5 -9 13 -17 23 -26 -29 30 0
-5 -9 13 -17 -23 26 29 -30 0
-5 -9 13 -17 -23 26 -29 30 0
-5 -9 13 -17 -23 -26 29 30 0
-5 -9 13 -17 -23 -26 -29 -30 0
-5 -9 -13 17 23 26 29 30 0
-5 -9 -13 17 23 26 -29 -30 0
-5 -9 -13 17 23 -26 29 -30 0
-5 -9 -13 17 23 -26 -29 30 0
-5 -9 -13 17 -23 26 29 -30 0
-5 -9 -13 17 -23 26 -29 30 0
-5 -9 -13 17 -23 -26 29 30 0
-5 -9 -13 17 -23 -26 -29 -30 0
-5 -9 -13 -17 23 26 29 -30 0
-5 -9 -13 -17 23 26 -29 30 0
-5 -9 -13 -17 23 -26 29 30 0
-5 -9 -13 -17 23 -26 -29 -30 0
-5 -9 -13 -17 -23 26 29 30 0
-5 -9 -13 -17 -23 26 -29 -30 0
-5 -9 -13 -17 -23 -26 29 -30 0
-5 -9 -13 -17 -23 -26 -29 30 0
14 21 24 27 -29 0
14 21 24 -27 29 0
14 21 -24 27 29 0
14 21 -24 -27 -29 0
14 -21 24 27 29 0
14 -21 24 -27 -29 0
14 -21 -24 27 -29 0
14 -21 -24 -27 29 0
-14 21 24 27 29 0
-14 21 24 -27 -29 0
-14 21 -24 27 -29 0
-14 21 -24 -27 29 0
-14 -21 24 27 -29 0
-14 -21 24 -27 29 0
-14 -21 -24 27 29 0
-14 -21 -24 -27 -29 0
6 10 15 18 25 28 -30 0
6 10 15 18 25 -28 30 0
6 10 15 18 -25 28 30 0
6 10 15 18 -25 -28 -30 0
6 10 15 -18 25 28 30 0
6 10 15 -18 25 -28 -30 0
6 10 15 -18 -25 28 -30 0
6 10 15 -18 -25 -28 30 0
6 10 -15 18 25 28 30 0
6 10 -15 18 25 -28 -30 0
6 10 -15 18 -25 28 -30 0
6 10 -15 18 -25 -28 30 0
6 10 -15 -18 25 28 -30 0
6 10 -15 -18 25 -28 30 0
6 10 -15 -18 -25 28 30 0
6 10 -15 -18 -25 -28 -30 0
6 -10 15 18 25 28 30 0
6 -10 15 18 25 -28 -30 0
6 -10 15 18 -25 28 -30 0
6 -10 15 18 -25 -28 30 0
6 -10 15 -18 25 28 -30 0
6 -10 15 -18 25 -28 30 0
6 -10 15 -18 -25 28 30 0
6 -10 15 -18 -25 -28 -30 0
6 -10 -15 18 25 28 -30 0
6 -10 -15 18 25 -28 30 0
6 -10 -15 18 -25 28 30 0
6 -10 -15 18 -25 -28 -30 0
6 -10 -15 -18 25 28 30 0
6 -10 -15 -18 25 -28 -30 0
6 -10 -15 -18 -25 28 -30 0
6 -10 -15 -18 -25 -28 30 0
-6 10 15 18 25 28 30 0
-6 10 15 18 25 -28 -30 0
-6 10 15 18 -25 28 -30 0
-6 10 15 18 -25 -28 30 0
-6 10 15 -18 25 28 -30 0
-6 10 15 -18 25 -28 30 0
-6 10 15 -18 -25 28 30 0
-6 10 15 -18 -25 -28 -30 0
-6 10 -15 18 25 28 -30 0
-6 10 -15 18 25 -28 30 0
-6 10 -15 18 -25 28 30 0
-6 10 -15 18 -25 -28 -30 0
-6 10 -15 -18 25 28 30 0
-6 10 -15 -18 25 -28 -30 0
-6 10 -15 -18 -25 28 -30 0
-6 10 -15 -18 -25 -28 30 0
-6 -10 15 18 25 28 -30 0
-6 -10 15 18 25 -28 30 0
-6 -10 15 18 -25 28 30 0
-6 -10 15 18 -25 -28 -30 0
-6 -10 15 -18 25 28 30 0
-6 -10 15 -18 25 -28 -30 0
-6 -10 15 -18 -25 28 -30 0
-6 -10 15 -18 -25 -28 30 0
-6 -10 -15 18 25 28 30 0
-6 -10 -15 18 25 -28 -30 0
-6 -10 -15 18 -25 28 -30 0
-6 -10 -15 18 -25 -28 30 0
-6 -10 -15 -18 25 28 -30 0
-6 -10 -15 -18 25 -28 30 0
-6 -10 -15 -18 -25 28 30 0
-6 -10 -15 -18 -25 -28 -30 0